c is-unsat
p cnf 10 72
-2 8 -6 0
3 -10 -4 0
-7 -1 -4 0
-4 1 -3 0
-6 10 -1 0
-8 -10 4 0
1 -6 9 0
8 -1 -2 0
-2 -7 -4 0
-10 8 4 0
-2 -4 -9 0
2 7 -1 0
-5 -10 -9 0
6 -10 -7 0
-2 -9 7 0
-1 5 10 0
-1 -8 3 0
-2 -5 -3 0
5 -10 -1 0
-4 -5 -2 0
-9 -7 -5 0
5 -2 -6 0
-7 -1 -3 0
-8 -2 -1 0
-4 -7 -6 0
-5 9 6 0
7 8 -1 0
-5 -1 8 0
-10 2 3 0
-8 -4 -1 0
-6 -4 -3 0
-7 -5 6 0
7 6 5 0
10 3 -9 0
-3 -4 -2 0
9 4 1 0
8 -9 -10 0
-4 -10 -5 0
10 -1 -2 0
-1 8 6 0
2 1 -10 0
-6 -9 -8 0
-7 5 2 0
4 -1 7 0
-5 -1 -6 0
6 2 -8 0
-1 -4 -10 0
-3 -7 2 0
-8 5 7 0
-9 7 -6 0
7 -3 -5 0
5 -2 -4 0
-9 -3 1 0
-9 -4 6 0
-8 -6 -4 0
-5 2 -3 0
-3 -1 8 0
6 -10 8 0
-4 -6 2 0
9 -7 -4 0
-3 -2 -4 0
-7 5 -10 0
6 -9 -4 0
2 -8 -1 0
7 -8 9 0
-1 7 -4 0
-2 -6 -5 0
-4 9 8 0
-9 -6 -1 0
-2 -7 -8 0
-7 8 5 0
3 4 7 0
